(declare-const X String)
; User-Agent\x3a\s+Host\x3A\s+Referer\x3a
(assert (str.in_re X (re.++ (str.to_re "User-Agent:") (re.+ (re.union (str.to_re " ") (str.to_re "\u{9}") (str.to_re "\u{a}") (str.to_re "\u{c}") (str.to_re "\u{d}"))) (str.to_re "Host:") (re.+ (re.union (str.to_re " ") (str.to_re "\u{9}") (str.to_re "\u{a}") (str.to_re "\u{c}") (str.to_re "\u{d}"))) (str.to_re "Referer:\u{a}"))))
; toolbarplace\x2Ecom[^\n\r]*Server[^\n\r]*X-Mailer\x3a\sUser-Agent\x3aHost\x3ABar\x2Fnewsurfer4\x2F
(assert (str.in_re X (re.++ (str.to_re "toolbarplace.com") (re.* (re.union (str.to_re "\u{a}") (str.to_re "\u{d}"))) (str.to_re "Server") (re.* (re.union (str.to_re "\u{a}") (str.to_re "\u{d}"))) (str.to_re "X-Mailer:\u{13}") (re.union (str.to_re " ") (str.to_re "\u{9}") (str.to_re "\u{a}") (str.to_re "\u{c}") (str.to_re "\u{d}")) (str.to_re "User-Agent:Host:Bar/newsurfer4/\u{a}"))))
; WinSession\w+asdbiz\x2Ebizfrom\x7croogoo\x7cCurrentiOpus
(assert (str.in_re X (re.++ (str.to_re "WinSession") (re.+ (re.union (re.range "0" "9") (re.range "A" "Z") (re.range "a" "z") (str.to_re "_"))) (str.to_re "asdbiz.bizfrom|roogoo|CurrentiOpus\u{a}"))))
; From\x3A\<title\>ActualUser-Agent\x3A\x2Fbar_pl\x2Ffav\.fcgi
(assert (str.in_re X (str.to_re "From:<title>ActualUser-Agent:/bar_pl/fav.fcgi\u{a}")))
(check-sat)

(exit)
